665406
760470
165000
520621
686595
239003
970833
581267
432827
423238
642535
942937
534334
415120
321193
989583
852446
409708
893306
28780
895432
711789
575460
432426
253697
833257
164114
291179
375095
568432
26509
312124
494164
302084
515223
941547
437606
211957
75816
631693
244873
327619
862463
210651
399624
517066
508968
694234
921049
660101
692904
843160
915541
109405
476510
744379
604485
115906
159833
55763
993910
4436
105025
42389
312201
995790
779376
795923
554674
411712
416760
31358
990149
835608
202599
755908
842803
799063
379451
607606
304524
10383
128179
935576
711405
18214
50035
844969
480977
979484
274030
298194
558320
445837
924928
337390
255200
141172
917307
694848
